3 15
405 380 360 
0 65 55 84 74 102 92 26 62 85 5 64 57 1
1 90 80 66 56 51 41 74 48 88 10 81 51 3
2 74 64 108 98 51 41 36 82 4 75 66 36 1
3 42 32 59 49 67 57 24 99 91 80 78 57 1
4 88 78 66 56 37 27 85 52 74 27 15 51 3
5 108 98 16 6 17 7 49 25 31 74 83 46 2
6 65 55 11 1 66 56 70 91 52 100 76 86 3
7 92 82 68 58 53 43 94 41 65 97 97 92 3
8 58 48 100 90 51 41 17 61 93 81 34 89 2
9 25 15 102 92 70 60 88 35 9 32 73 43 2
10 75 65 22 12 76 66 49 55 67 57 20 91 3
11 45 35 53 43 62 52 41 12 38 60 51 58 3
12 15 5 41 31 68 58 79 35 21 16 50 71 2
13 29 19 86 76 34 24 66 5 46 38 25 96 1
14 89 79 28 18 66 56 79 27 72 25 9 97 2
